
Gurobi 9.5.2 (win64) logging started Fri May 19 16:07:43 2023

Set parameter LogFile to value "./ccga_results/2023-05-19 16-07-31-4/MSP_TimeStampConvert_gurobi_log.txt"
Set parameter TimeLimit to value 1195

Gurobi 9.5.2 (win64) logging started Fri May 19 16:07:46 2023

Set parameter LogFile to value "./ccga_results/2023-05-19 16-07-31-4/MSP_TimeStampConvert_gurobi_log.txt"
Set parameter TimeLimit to value 1195
Gurobi Optimizer version 9.5.2 build v9.5.2rc0 (win64)
Thread count: 10 physical cores, 20 logical processors, using up to 20 threads
Optimize a model with 400 rows, 305 columns and 986 nonzeros
Model fingerprint: 0xcb784558
Variable types: 17 continuous, 288 integer (288 binary)
Coefficient statistics:
  Matrix range     [1e+00, 1e+00]
  Objective range  [1e+00, 1e+00]
  Bounds range     [1e+03, 1e+03]
  RHS range        [1e+00, 1e+00]
Found heuristic solution: objective 16000.000000

Explored 0 nodes (0 simplex iterations) in 0.00 seconds (0.00 work units)
Thread count was 1 (of 20 available processors)

Solution count 1: 16000 

Optimal solution found (tolerance 5.00e-02)
Best objective 1.600000000000e+04, best bound 1.600000000000e+04, gap 0.0000%

User-callback calls 21, time in user-callback 0.00 sec
Set parameter TimeLimit to value 1083
Gurobi Optimizer version 9.5.2 build v9.5.2rc0 (win64)
Thread count: 10 physical cores, 20 logical processors, using up to 20 threads
Optimize a model with 1429 rows, 641 columns and 4291 nonzeros
Model fingerprint: 0x93268097
Variable types: 321 continuous, 320 integer (320 binary)
Coefficient statistics:
  Matrix range     [9e-01, 8e+02]
  Objective range  [1e+00, 1e+00]
  Bounds range     [1e+03, 1e+03]
  RHS range        [1e+00, 6e+06]

MIP start from previous solve did not produce a new incumbent solution

Presolve removed 513 rows and 207 columns
Presolve time: 0.01s
Presolved: 916 rows, 434 columns, 3008 nonzeros
Variable types: 258 continuous, 176 integer (176 binary)
Found heuristic solution: objective 4471.1111111

Root relaxation: objective 1.089000e+04, 382 iterations, 0.00 seconds (0.00 work units)

    Nodes    |    Current Node    |     Objective Bounds      |     Work
 Expl Unexpl |  Obj  Depth IntInf | Incumbent    BestBd   Gap | It/Node Time

     0     0 10890.0000    0    9 4471.11111 10890.0000   144%     -    0s
H    0     0                    10890.000000 10890.0000  0.00%     -    0s
     0     0 10890.0000    0    9 10890.0000 10890.0000  0.00%     -    0s

Explored 1 nodes (382 simplex iterations) in 0.03 seconds (0.03 work units)
Thread count was 20 (of 20 available processors)

Solution count 2: 10890 4471.11 

Optimal solution found (tolerance 5.00e-02)
Best objective 1.089000000000e+04, best bound 1.089000000000e+04, gap 0.0000%

User-callback calls 817, time in user-callback 0.00 sec
Set parameter TimeLimit to value 1076
Gurobi Optimizer version 9.5.2 build v9.5.2rc0 (win64)
Thread count: 10 physical cores, 20 logical processors, using up to 20 threads
Optimize a model with 2458 rows, 977 columns and 7596 nonzeros
Model fingerprint: 0x45d7ce60
Variable types: 625 continuous, 352 integer (352 binary)
Coefficient statistics:
  Matrix range     [9e-01, 8e+02]
  Objective range  [1e+00, 1e+00]
  Bounds range     [1e+03, 1e+03]
  RHS range        [1e+00, 6e+06]

MIP start from previous solve did not produce a new incumbent solution

Presolve removed 1269 rows and 437 columns
Presolve time: 0.02s
Presolved: 1189 rows, 540 columns, 3990 nonzeros
Variable types: 382 continuous, 158 integer (158 binary)
Found heuristic solution: objective 3306.1111111
Found heuristic solution: objective 3371.1111111

Root relaxation: objective 5.221630e+03, 650 iterations, 0.00 seconds (0.00 work units)

    Nodes    |    Current Node    |     Objective Bounds      |     Work
 Expl Unexpl |  Obj  Depth IntInf | Incumbent    BestBd   Gap | It/Node Time

     0     0 5221.62951    0   16 3371.11111 5221.62951  54.9%     -    0s
H    0     0                    4810.0000000 5221.62951  8.56%     -    0s
H    0     0                    4960.0000000 5221.62951  5.27%     -    0s
H    0     0                    4965.0000000 5221.62951  5.17%     -    0s
H    0     0                    4996.1111111 5215.75957  4.40%     -    0s
     0     0 5215.75957    0   26 4996.11111 5215.75957  4.40%     -    0s

Cutting planes:
  Gomory: 6
  Implied bound: 1
  MIR: 13
  Flow cover: 18
  Relax-and-lift: 2

Explored 1 nodes (710 simplex iterations) in 0.06 seconds (0.06 work units)
Thread count was 20 (of 20 available processors)

Solution count 6: 4996.11 4965 4960 ... 3306.11

Optimal solution found (tolerance 5.00e-02)
Best objective 4.996111111111e+03, best bound 5.215759574375e+03, gap 4.3964%

User-callback calls 833, time in user-callback 0.00 sec
Gurobi Optimizer version 9.5.2 build v9.5.2rc0 (win64)
Thread count: 10 physical cores, 20 logical processors, using up to 20 threads
Optimize a model with 3487 rows, 1313 columns and 10901 nonzeros
Model fingerprint: 0x14f8b0ec
Variable types: 929 continuous, 384 integer (384 binary)
Coefficient statistics:
  Matrix range     [9e-01, 8e+02]
  Objective range  [1e+00, 1e+00]
  Bounds range     [1e+03, 1e+03]
  RHS range        [1e+00, 6e+06]

MIP start from previous solve did not produce a new incumbent solution

Presolve removed 2094 rows and 698 columns
Presolve time: 0.03s
Presolved: 1393 rows, 615 columns, 4705 nonzeros
Variable types: 472 continuous, 143 integer (143 binary)
Found heuristic solution: objective 2786.6666667

Root relaxation: objective 3.475975e+03, 881 iterations, 0.01 seconds (0.01 work units)

    Nodes    |    Current Node    |     Objective Bounds      |     Work
 Expl Unexpl |  Obj  Depth IntInf | Incumbent    BestBd   Gap | It/Node Time

     0     0 3475.97512    0   19 2786.66667 3475.97512  24.7%     -    0s
H    0     0                    3076.1111111 3475.97512  13.0%     -    0s
     0     0 3471.47579    0   35 3076.11111 3471.47579  12.9%     -    0s
     0     0 3471.22908    0   33 3076.11111 3471.22908  12.8%     -    0s
H    0     0                    3196.1111111 3467.95633  8.51%     -    0s
     0     0 3467.95633    0   41 3196.11111 3467.95633  8.51%     -    0s
     0     0 3467.95633    0   41 3196.11111 3467.95633  8.51%     -    0s
     0     0 3466.06996    0   34 3196.11111 3466.06996  8.45%     -    0s
H    0     0                    3204.4444444 3465.62470  8.15%     -    0s
H    0     0                    3290.5555556 3465.62470  5.32%     -    0s
     0     0 3465.62470    0   37 3290.55556 3465.62470  5.32%     -    0s
     0     0 3465.39058    0   39 3290.55556 3465.39058  5.31%     -    0s
     0     0 3465.39058    0   39 3290.55556 3465.39058  5.31%     -    0s
     0     0 3462.51699    0   38 3290.55556 3462.51699  5.23%     -    0s
     0     0 3462.51699    0   45 3290.55556 3462.51699  5.23%     -    0s
     0     0 3462.51699    0   45 3290.55556 3462.51699  5.23%     -    0s
     0     0 3462.51699    0   45 3290.55556 3462.51699  5.23%     -    0s
     0     0 3460.31892    0   42 3290.55556 3460.31892  5.16%     -    0s
     0     0 3459.65822    0   33 3290.55556 3459.65822  5.14%     -    0s
     0     2 3459.65822    0   33 3290.55556 3459.65822  5.14%     -    0s

Cutting planes:
  Gomory: 5
  Implied bound: 6
  MIR: 44
  Flow cover: 52
  RLT: 2
  Relax-and-lift: 11

Explored 395 nodes (10217 simplex iterations) in 0.30 seconds (0.30 work units)
Thread count was 20 (of 20 available processors)

Solution count 5: 3290.56 3204.44 3196.11 ... 2786.67

Optimal solution found (tolerance 5.00e-02)
Best objective 3.290555555556e+03, best bound 3.447990160438e+03, gap 4.7844%

User-callback calls 1849, time in user-callback 0.00 sec
Set parameter TimeLimit to value 1029
Gurobi Optimizer version 9.5.2 build v9.5.2rc0 (win64)
Thread count: 10 physical cores, 20 logical processors, using up to 20 threads
Optimize a model with 4516 rows, 1649 columns and 14206 nonzeros
Model fingerprint: 0x481c0d3d
Variable types: 1233 continuous, 416 integer (416 binary)
Coefficient statistics:
  Matrix range     [9e-01, 8e+02]
  Objective range  [1e+00, 1e+00]
  Bounds range     [1e+03, 1e+03]
  RHS range        [1e+00, 6e+06]

MIP start from previous solve produced solution with objective 2811.11 (0.02s)
Loaded MIP start from previous solve with objective 2811.11

Presolve removed 2468 rows and 775 columns
Presolve time: 0.04s
Presolved: 2048 rows, 874 columns, 7001 nonzeros
Variable types: 731 continuous, 143 integer (143 binary)

Root relaxation: objective 3.336507e+03, 1266 iterations, 0.02 seconds (0.02 work units)

    Nodes    |    Current Node    |     Objective Bounds      |     Work
 Expl Unexpl |  Obj  Depth IntInf | Incumbent    BestBd   Gap | It/Node Time

     0     0 3336.50681    0   21 2811.11111 3336.50681  18.7%     -    0s
     0     0 3315.60841    0   45 2811.11111 3315.60841  17.9%     -    0s
H    0     0                    2911.1111111 3315.60841  13.9%     -    0s
H    0     0                    3069.1666667 3315.60094  8.03%     -    0s
     0     0 3315.60094    0   42 3069.16667 3315.60094  8.03%     -    0s
     0     0 3306.85764    0   54 3069.16667 3306.85764  7.74%     -    0s
     0     0 3306.47499    0   57 3069.16667 3306.47499  7.73%     -    0s
     0     0 3306.39756    0   53 3069.16667 3306.39756  7.73%     -    0s
     0     0 3303.05097    0   53 3069.16667 3303.05097  7.62%     -    0s
     0     0 3298.77221    0   53 3069.16667 3298.77221  7.48%     -    0s
     0     0 3298.77221    0   53 3069.16667 3298.77221  7.48%     -    0s
     0     0 3298.77221    0   71 3069.16667 3298.77221  7.48%     -    0s
     0     0 3298.77221    0   65 3069.16667 3298.77221  7.48%     -    0s
     0     0 3292.35140    0   57 3069.16667 3292.35140  7.27%     -    0s
     0     0 3286.57977    0   57 3069.16667 3286.57977  7.08%     -    0s
     0     0 3286.57977    0   58 3069.16667 3286.57977  7.08%     -    0s
     0     0 3286.57977    0   46 3069.16667 3286.57977  7.08%     -    0s
     0     2 3286.57977    0   46 3069.16667 3286.57977  7.08%     -    0s
H  241   144                    3093.6111111 3286.57977  6.24%  32.8    0s
H  256   144                    3111.1111111 3286.57977  5.64%  32.9    0s
*  300   162              25    3129.1111111 3267.86216  4.43%  32.9    0s

Cutting planes:
  Gomory: 6
  Cover: 3
  Implied bound: 10
  MIR: 77
  Flow cover: 78
  Relax-and-lift: 12

Explored 325 nodes (12500 simplex iterations) in 0.43 seconds (0.43 work units)
Thread count was 20 (of 20 available processors)

Solution count 6: 3129.11 3111.11 3093.61 ... 2811.11

Optimal solution found (tolerance 5.00e-02)
Best objective 3.129111111111e+03, best bound 3.267862164219e+03, gap 4.4342%

User-callback calls 1748, time in user-callback 0.00 sec
Set parameter TimeLimit to value 913
Gurobi Optimizer version 9.5.2 build v9.5.2rc0 (win64)
Thread count: 10 physical cores, 20 logical processors, using up to 20 threads
Optimize a model with 5545 rows, 1985 columns and 17511 nonzeros
Model fingerprint: 0xad3cdd60
Variable types: 1537 continuous, 448 integer (448 binary)
Coefficient statistics:
  Matrix range     [9e-01, 8e+02]
  Objective range  [1e+00, 1e+00]
  Bounds range     [1e+03, 1e+03]
  RHS range        [1e+00, 6e+06]

MIP start from previous solve produced solution with objective 2940 (0.03s)
Loaded MIP start from previous solve with objective 2940

Presolve removed 2842 rows and 855 columns
Presolve time: 0.06s
Presolved: 2703 rows, 1130 columns, 9285 nonzeros
Variable types: 987 continuous, 143 integer (143 binary)

Root relaxation: objective 3.274115e+03, 1708 iterations, 0.02 seconds (0.03 work units)

    Nodes    |    Current Node    |     Objective Bounds      |     Work
 Expl Unexpl |  Obj  Depth IntInf | Incumbent    BestBd   Gap | It/Node Time

     0     0 3274.11505    0   22 2940.00000 3274.11505  11.4%     -    0s
     0     0 3262.50930    0   50 2940.00000 3262.50930  11.0%     -    0s
     0     0 3261.86397    0   50 2940.00000 3261.86397  10.9%     -    0s
     0     0 3247.87420    0   43 2940.00000 3247.87420  10.5%     -    0s
     0     0 3247.87420    0   46 2940.00000 3247.87420  10.5%     -    0s
     0     0 3245.81109    0   37 2940.00000 3245.81109  10.4%     -    0s
     0     0 3227.33669    0   55 2940.00000 3227.33669  9.77%     -    0s
     0     0 3224.73974    0   55 2940.00000 3224.73974  9.69%     -    0s
     0     0 3224.73974    0   55 2940.00000 3224.73974  9.69%     -    0s
     0     0 3221.27312    0   59 2940.00000 3221.27312  9.57%     -    0s
     0     0 3221.27312    0   59 2940.00000 3221.27312  9.57%     -    0s
     0     0 3221.27312    0   62 2940.00000 3221.27312  9.57%     -    0s
H    0     0                    2946.1111111 3221.27312  9.34%     -    0s
     0     0 3221.27312    0   62 2946.11111 3221.27312  9.34%     -    0s
     0     0 3221.27312    0   62 2946.11111 3221.27312  9.34%     -    0s
H    0     0                    2961.1111111 3213.94426  8.54%     -    0s
     0     0 3213.94426    0   65 2961.11111 3213.94426  8.54%     -    0s
     0     0 3213.94426    0   62 2961.11111 3213.94426  8.54%     -    0s
     0     2 3213.94426    0   59 2961.11111 3213.94426  8.54%     -    0s
H  101   115                    2986.1111111 3213.94426  7.63%  41.7    0s
*  168   134              19    3000.0000000 3213.94426  7.13%  36.2    0s
*  265   215              31    3046.1111111 3213.94426  5.51%  38.8    0s
H  339   230                    3055.0000000 3212.89350  5.17%  37.4    0s
*  348   230              36    3095.0000000 3212.89350  3.81%  37.5    0s

Cutting planes:
  Gomory: 6
  Implied bound: 6
  MIR: 57
  Flow cover: 81
  Relax-and-lift: 22

Explored 382 nodes (16717 simplex iterations) in 0.60 seconds (0.59 work units)
Thread count was 20 (of 20 available processors)

Solution count 8: 3095 3055 3046.11 ... 2940

Optimal solution found (tolerance 5.00e-02)
Best objective 3.095000000000e+03, best bound 3.212893502868e+03, gap 3.8092%

User-callback calls 1918, time in user-callback 0.00 sec
Set parameter TimeLimit to value 744
Gurobi Optimizer version 9.5.2 build v9.5.2rc0 (win64)
Thread count: 10 physical cores, 20 logical processors, using up to 20 threads
Optimize a model with 6574 rows, 2321 columns and 20816 nonzeros
Model fingerprint: 0xe21386ac
Variable types: 1841 continuous, 480 integer (480 binary)
Coefficient statistics:
  Matrix range     [9e-01, 8e+02]
  Objective range  [1e+00, 1e+00]
  Bounds range     [1e+03, 1e+03]
  RHS range        [1e+00, 6e+06]

MIP start from previous solve produced solution with objective 3001.11 (0.03s)
Loaded MIP start from previous solve with objective 3001.11

Presolve removed 3217 rows and 933 columns
Presolve time: 0.08s
Presolved: 3357 rows, 1388 columns, 11468 nonzeros
Variable types: 1243 continuous, 145 integer (143 binary)

Root relaxation: objective 3.247191e+03, 1969 iterations, 0.03 seconds (0.04 work units)

    Nodes    |    Current Node    |     Objective Bounds      |     Work
 Expl Unexpl |  Obj  Depth IntInf | Incumbent    BestBd   Gap | It/Node Time

     0     0 3247.19147    0   26 3001.11111 3247.19147  8.20%     -    0s
     0     0 3242.60797    0   36 3001.11111 3242.60797  8.05%     -    0s
     0     0 3242.60797    0   36 3001.11111 3242.60797  8.05%     -    0s
     0     0 3238.22107    0   40 3001.11111 3238.22107  7.90%     -    0s
     0     0 3238.22107    0   46 3001.11111 3238.22107  7.90%     -    0s
     0     0 3226.52860    0   48 3001.11111 3226.52860  7.51%     -    0s
     0     0 3222.18813    0   68 3001.11111 3222.18813  7.37%     -    0s
     0     0 3222.10033    0   68 3001.11111 3222.10033  7.36%     -    0s
     0     0 3221.86191    0   74 3001.11111 3221.86191  7.36%     -    0s
     0     0 3221.86191    0   74 3001.11111 3221.86191  7.36%     -    0s
     0     0 3218.71446    0   65 3001.11111 3218.71446  7.25%     -    0s
     0     0 3213.00948    0   71 3001.11111 3213.00948  7.06%     -    0s
     0     0 3213.00948    0   74 3001.11111 3213.00948  7.06%     -    0s
     0     0 3212.11974    0   77 3001.11111 3212.11974  7.03%     -    0s
     0     0 3212.11974    0   74 3001.11111 3212.11974  7.03%     -    0s
     0     0 3193.18855    0   77 3001.11111 3193.18855  6.40%     -    0s
     0     0 3193.18855    0   77 3001.11111 3193.18855  6.40%     -    0s
H    0     0                    3022.4074074 3188.05358  5.48%     -    0s
     0     0 3187.92657    0   65 3022.40741 3187.92657  5.48%     -    0s
     0     0 3187.92657    0   65 3022.40741 3187.92657  5.48%     -    0s
     0     2 3187.92657    0   65 3022.40741 3187.92657  5.48%     -    0s
*  278   141              29    3076.1111111 3187.92657  3.63%  60.9    0s

Cutting planes:
  Gomory: 4
  Implied bound: 14
  MIR: 95
  Flow cover: 145
  Relax-and-lift: 38

Explored 304 nodes (21264 simplex iterations) in 0.85 seconds (0.90 work units)
Thread count was 20 (of 20 available processors)

Solution count 3: 3076.11 3022.41 3001.11 

Optimal solution found (tolerance 5.00e-02)
Best objective 3.076111111111e+03, best bound 3.187926569656e+03, gap 3.6350%

User-callback calls 1814, time in user-callback 0.00 sec
Set parameter TimeLimit to value 565
Gurobi Optimizer version 9.5.2 build v9.5.2rc0 (win64)
Thread count: 10 physical cores, 20 logical processors, using up to 20 threads
Optimize a model with 7603 rows, 2657 columns and 24121 nonzeros
Model fingerprint: 0xf6f090c5
Variable types: 2145 continuous, 512 integer (512 binary)
Coefficient statistics:
  Matrix range     [9e-01, 8e+02]
  Objective range  [1e+00, 1e+00]
  Bounds range     [1e+03, 1e+03]
  RHS range        [1e+00, 6e+06]

MIP start from previous solve produced solution with objective 2878.61 (0.04s)
Loaded MIP start from previous solve with objective 2878.61

Presolve removed 3588 rows and 1013 columns
Presolve time: 0.09s
Presolved: 4015 rows, 1644 columns, 13716 nonzeros
Variable types: 1499 continuous, 145 integer (143 binary)

Root relaxation: objective 3.226811e+03, 2332 iterations, 0.04 seconds (0.06 work units)

    Nodes    |    Current Node    |     Objective Bounds      |     Work
 Expl Unexpl |  Obj  Depth IntInf | Incumbent    BestBd   Gap | It/Node Time

     0     0 3226.81053    0   26 2878.61111 3226.81053  12.1%     -    0s
     0     0 3216.00174    0   47 2878.61111 3216.00174  11.7%     -    0s
     0     0 3215.85559    0   50 2878.61111 3215.85559  11.7%     -    0s
     0     0 3215.85559    0   50 2878.61111 3215.85559  11.7%     -    0s
     0     0 3210.98136    0   56 2878.61111 3210.98136  11.5%     -    0s
     0     0 3201.97879    0   57 2878.61111 3201.97879  11.2%     -    0s
     0     0 3199.19272    0   62 2878.61111 3199.19272  11.1%     -    0s
     0     0 3199.19265    0   62 2878.61111 3199.19265  11.1%     -    0s
     0     0 3192.56741    0   68 2878.61111 3192.56741  10.9%     -    0s
H    0     0                    2956.1111111 3192.56741  8.00%     -    0s
     0     0 3187.31134    0   74 2956.11111 3187.31134  7.82%     -    0s
     0     0 3187.30977    0   78 2956.11111 3187.30977  7.82%     -    0s
     0     0 3187.30977    0   81 2956.11111 3187.30977  7.82%     -    0s
     0     0 3183.44941    0   73 2956.11111 3183.44941  7.69%     -    0s
     0     0 3183.44941    0   67 2956.11111 3183.44941  7.69%     -    0s
     0     2 3183.44941    0   61 2956.11111 3183.44941  7.69%     -    0s
H  214   117                    2981.1111111 3183.44941  6.79%  71.5    0s
*  416   189              35    2991.1111111 3183.44941  6.43%  70.4    1s
H  436   190                    3019.8611111 3150.29351  4.32%  70.4    1s

Cutting planes:
  Gomory: 5
  Implied bound: 24
  MIR: 102
  Flow cover: 168
  Relax-and-lift: 27

Explored 451 nodes (35663 simplex iterations) in 1.06 seconds (1.32 work units)
Thread count was 20 (of 20 available processors)

Solution count 5: 3019.86 2991.11 2981.11 ... 2878.61

Optimal solution found (tolerance 5.00e-02)
Best objective 3.019861111111e+03, best bound 3.150293508652e+03, gap 4.3192%

User-callback calls 2129, time in user-callback 0.00 sec
Set parameter TimeLimit to value 360
Gurobi Optimizer version 9.5.2 build v9.5.2rc0 (win64)
Thread count: 10 physical cores, 20 logical processors, using up to 20 threads
Optimize a model with 8632 rows, 2993 columns and 27426 nonzeros
Model fingerprint: 0x00e7935f
Variable types: 2449 continuous, 544 integer (544 binary)
Coefficient statistics:
  Matrix range     [9e-01, 8e+02]
  Objective range  [1e+00, 1e+00]
  Bounds range     [1e+03, 1e+03]
  RHS range        [1e+00, 6e+06]

MIP start from previous solve produced solution with objective 2943.61 (0.04s)
Loaded MIP start from previous solve with objective 2943.61

Presolve removed 4314 rows and 1238 columns
Presolve time: 0.10s
Presolved: 4318 rows, 1755 columns, 14775 nonzeros
Variable types: 1610 continuous, 145 integer (143 binary)

Root relaxation: objective 3.226811e+03, 2397 iterations, 0.04 seconds (0.05 work units)

    Nodes    |    Current Node    |     Objective Bounds      |     Work
 Expl Unexpl |  Obj  Depth IntInf | Incumbent    BestBd   Gap | It/Node Time

     0     0 3226.81053    0   32 2943.61111 3226.81053  9.62%     -    0s
     0     0 3221.08506    0   48 2943.61111 3221.08506  9.43%     -    0s
     0     0 3221.08506    0   45 2943.61111 3221.08506  9.43%     -    0s
     0     0 3212.00378    0   50 2943.61111 3212.00378  9.12%     -    0s
     0     0 3206.77212    0   60 2943.61111 3206.77212  8.94%     -    0s
     0     0 3206.62022    0   62 2943.61111 3206.62022  8.93%     -    0s
     0     0 3206.62022    0   53 2943.61111 3206.62022  8.93%     -    0s
     0     0 3195.55988    0   66 2943.61111 3195.55988  8.56%     -    0s
     0     0 3195.47279    0   66 2943.61111 3195.47279  8.56%     -    0s
     0     0 3195.47279    0   66 2943.61111 3195.47279  8.56%     -    0s
     0     0 3188.00555    0   81 2943.61111 3188.00555  8.30%     -    0s
     0     0 3187.82232    0   76 2943.61111 3187.82232  8.30%     -    0s
     0     0 3187.79559    0   78 2943.61111 3187.79559  8.30%     -    0s
     0     0 3187.78994    0   81 2943.61111 3187.78994  8.30%     -    0s
     0     0 3181.97788    0   84 2943.61111 3181.97788  8.10%     -    0s
     0     0 3181.57154    0   71 2943.61111 3181.57154  8.08%     -    0s
     0     0 3181.44589    0   87 2943.61111 3181.44589  8.08%     -    0s
     0     0 3181.44422    0   69 2943.61111 3181.44422  8.08%     -    0s
     0     0 3180.69039    0   81 2943.61111 3180.69039  8.05%     -    0s
     0     0 3180.68404    0   63 2943.61111 3180.68404  8.05%     -    0s
     0     0 3180.68119    0   63 2943.61111 3180.68119  8.05%     -    0s
     0     0 3177.65451    0   63 2943.61111 3177.65451  7.95%     -    0s
     0     0 3176.16025    0   63 2943.61111 3176.16025  7.90%     -    0s
     0     0 3175.47582    0   60 2943.61111 3175.47582  7.88%     -    0s
     0     0 3175.47582    0   60 2943.61111 3175.47582  7.88%     -    0s
     0     0 3175.47582    0   60 2943.61111 3175.47582  7.88%     -    0s
     0     0 3175.47582    0   60 2943.61111 3175.47582  7.88%     -    0s
     0     2 3175.47582    0   60 2943.61111 3175.47582  7.88%     -    0s
H  508   233                    2983.0555556 3148.87410  5.56%  75.9    1s
*  732   330              24    2997.5000000 3148.87410  5.05%  76.6    1s

Cutting planes:
  Gomory: 3
  Implied bound: 30
  MIR: 160
  Flow cover: 172
  Relax-and-lift: 47

Explored 790 nodes (64440 simplex iterations) in 1.58 seconds (1.72 work units)
Thread count was 20 (of 20 available processors)

Solution count 3: 2997.5 2983.06 2943.61 

Optimal solution found (tolerance 5.00e-02)
Best objective 2.997500000000e+03, best bound 3.142533420297e+03, gap 4.8385%

User-callback calls 2942, time in user-callback 0.00 sec
Set parameter TimeLimit to value 197
Gurobi Optimizer version 9.5.2 build v9.5.2rc0 (win64)
Thread count: 10 physical cores, 20 logical processors, using up to 20 threads
Optimize a model with 9661 rows, 3329 columns and 30731 nonzeros
Model fingerprint: 0xf669bcdb
Variable types: 2753 continuous, 576 integer (576 binary)
Coefficient statistics:
  Matrix range     [9e-01, 8e+02]
  Objective range  [1e+00, 1e+00]
  Bounds range     [1e+03, 1e+03]
  RHS range        [1e+00, 6e+06]

MIP start from previous solve produced solution with objective 2963.61 (0.05s)
Loaded MIP start from previous solve with objective 2963.61

Presolve removed 4690 rows and 1317 columns
Presolve time: 0.12s
Presolved: 4971 rows, 2012 columns, 16975 nonzeros
Variable types: 1866 continuous, 146 integer (143 binary)

Root relaxation: objective 3.225967e+03, 2895 iterations, 0.06 seconds (0.09 work units)

    Nodes    |    Current Node    |     Objective Bounds      |     Work
 Expl Unexpl |  Obj  Depth IntInf | Incumbent    BestBd   Gap | It/Node Time

     0     0 3225.96676    0   57 2963.61111 3225.96676  8.85%     -    0s
     0     0 3208.27685    0   69 2963.61111 3208.27685  8.26%     -    0s
     0     0 3208.19746    0   66 2963.61111 3208.19746  8.25%     -    0s
     0     0 3208.19746    0   66 2963.61111 3208.19746  8.25%     -    0s
     0     0 3189.80682    0   60 2963.61111 3189.80682  7.63%     -    0s
     0     0 3189.75146    0   66 2963.61111 3189.75146  7.63%     -    0s
     0     0 3189.75146    0   66 2963.61111 3189.75146  7.63%     -    0s
     0     0 3182.74330    0   77 2963.61111 3182.74330  7.39%     -    0s
     0     0 3180.37255    0   77 2963.61111 3180.37255  7.31%     -    0s
     0     0 3176.85080    0   72 2963.61111 3176.85080  7.20%     -    0s
     0     0 3176.85080    0   74 2963.61111 3176.85080  7.20%     -    0s
     0     0 3176.85080    0   74 2963.61111 3176.85080  7.20%     -    0s
     0     0 3176.85080    0   80 2963.61111 3176.85080  7.20%     -    0s
     0     0 3176.85080    0   80 2963.61111 3176.85080  7.20%     -    0s
     0     2 3176.85080    0   77 2963.61111 3176.85080  7.20%     -    0s
H  245   101                    2966.1111111 3175.30307  7.05%  90.9    1s
H  390   143                    2981.1111111 3170.94949  6.37%  85.4    1s

Cutting planes:
  Gomory: 4
  Implied bound: 39
  MIR: 142
  Flow cover: 221
  Relax-and-lift: 74

Explored 694 nodes (60644 simplex iterations) in 1.51 seconds (1.78 work units)
Thread count was 20 (of 20 available processors)

Solution count 3: 2981.11 2966.11 2963.61 

Optimal solution found (tolerance 5.00e-02)
Best objective 2.981111111111e+03, best bound 3.124480597355e+03, gap 4.8093%

User-callback calls 2653, time in user-callback 0.00 sec
Set parameter TimeLimit to value 2
Gurobi Optimizer version 9.5.2 build v9.5.2rc0 (win64)
Thread count: 10 physical cores, 20 logical processors, using up to 20 threads
Optimize a model with 10690 rows, 3665 columns and 34036 nonzeros
Model fingerprint: 0xa5272650
Variable types: 3057 continuous, 608 integer (608 binary)
Coefficient statistics:
  Matrix range     [9e-01, 8e+02]
  Objective range  [1e+00, 1e+00]
  Bounds range     [1e+03, 1e+03]
  RHS range        [1e+00, 6e+06]

MIP start from previous solve produced solution with objective 2952.22 (0.06s)
Loaded MIP start from previous solve with objective 2952.22

Presolve removed 5416 rows and 1542 columns
Presolve time: 0.12s
Presolved: 5274 rows, 2123 columns, 18025 nonzeros
Variable types: 1977 continuous, 146 integer (143 binary)

Root relaxation: objective 3.225967e+03, 3641 iterations, 0.07 seconds (0.07 work units)

    Nodes    |    Current Node    |     Objective Bounds      |     Work
 Expl Unexpl |  Obj  Depth IntInf | Incumbent    BestBd   Gap | It/Node Time

     0     0 3225.96676    0   57 2952.22222 3225.96676  9.27%     -    0s
     0     0 3208.92480    0   68 2952.22222 3208.92480  8.70%     -    0s
     0     0 3206.48677    0   65 2952.22222 3206.48677  8.61%     -    0s
     0     0 3206.48677    0   65 2952.22222 3206.48677  8.61%     -    0s
     0     0 3189.88167    0   57 2952.22222 3189.88167  8.05%     -    0s
     0     0 3189.22670    0   75 2952.22222 3189.22670  8.03%     -    0s
     0     0 3189.22257    0   76 2952.22222 3189.22257  8.03%     -    0s
     0     0 3180.37255    0   55 2952.22222 3180.37255  7.73%     -    0s
     0     0 3176.15009    0   66 2952.22222 3176.15009  7.59%     -    0s
     0     0 3175.43747    0   75 2952.22222 3175.43747  7.56%     -    0s
     0     0 3175.43747    0   75 2952.22222 3175.43747  7.56%     -    0s
     0     0 3175.43747    0   84 2952.22222 3175.43747  7.56%     -    0s
     0     0 3175.43747    0   90 2952.22222 3175.43747  7.56%     -    0s
     0     0 3175.43747    0  105 2952.22222 3175.43747  7.56%     -    0s
     0     0 3175.43747    0  105 2952.22222 3175.43747  7.56%     -    0s
     0     2 3175.43747    0  105 2952.22222 3175.43747  7.56%     -    0s
H  539   205                    2962.2222222 3175.43747  7.20%  86.8    1s
*  898   309              24    2963.6111111 3142.45104  6.03%  91.7    1s
* 1078   324              24    2966.9444444 3120.26788  5.17%  89.4    2s

Cutting planes:
  Gomory: 5
  Implied bound: 45
  MIR: 176
  Flow cover: 212
  Relax-and-lift: 73

Explored 1099 nodes (103467 simplex iterations) in 2.02 seconds (2.59 work units)
Thread count was 20 (of 20 available processors)

Solution count 4: 2966.94 2963.61 2962.22 2952.22 

Time limit reached
Best objective 2.966944444444e+03, best bound 3.120267884703e+03, gap 5.1677%

User-callback calls 3552, time in user-callback 0.00 sec
